NAME : rc_201.4.7936350.tour
COMMENT : Length = 7936350
COMMENT : Found by LKH [Keld Helsgaun] Tue May  2 05:21:39 2017
TYPE : TOUR
DIMENSION : 26
TOUR_SECTION
1
21
3
15
4
2
18
22
7
6
5
14
13
26
24
17
12
10
11
19
25
16
8
9
23
20
-1
EOF
